489
1 0 5 456 1 439 1 440 1 441 1 442 1
2 0 5 320 1 145 1 146 1 164 1 351 1
3 0 5 348 1 170 1 50 1 384 1 226 1
4 0 5 289 1 63 1 332 1 52 1 103 1
5 0 5 412 1 43 1 138 1 293 1 36 1
6 0 5 253 1 242 1 91 1 297 1 404 1
7 0 5 313 1 218 1 231 1 353 1 230 1
8 0 5 376 1 56 1 96 1 186 1 131 1
9 0 5 41 1 311 1 74 1 375 1 391 1
10 0 5 428 1 238 1 274 1 412 1 193 1
11 0 5 226 1 146 1 126 1 250 1 402 1
12 0 5 326 1 290 1 356 1 136 1 60 1
13 0 5 390 1 332 1 160 1 132 1 63 1
14 0 5 202 1 377 1 215 1 342 1 416 1
15 0 5 327 1 159 1 197 1 200 1 404 1
16 0 5 199 1 331 1 32 1 325 1 363 1
17 0 5 90 1 223 1 117 1 266 1 333 1
18 0 5 109 1 182 1 33 1 175 1 48 1
19 0 5 107 1 261 1 409 1 165 1 352 1
20 0 5 420 1 401 1 110 1 346 1 257 1
21 0 5 82 1 277 1 235 1 133 1 285 1
22 0 5 309 1 325 1 375 1 45 1 93 1
23 0 5 264 1 300 1 273 1 252 1 283 1
24 0 5 78 1 378 1 212 1 97 1 389 1
25 0 5 337 1 102 1 160 1 210 1 26 1
26 0 5 158 1 337 1 210 1 219 1 66 1
27 0 5 65 1 99 1 250 1 227 1 393 1
28 0 5 298 1 49 1 60 1 326 1 224 1
29 0 5 104 1 122 1 101 1 147 1 238 1
30 0 5 354 1 37 1 178 1 353 1 406 1
31 0 5 302 1 47 1 120 1 347 1 280 1
32 0 5 199 1 123 1 363 1 16 1 325 1
33 0 5 175 1 182 1 18 1 48 1 221 1
34 0 5 365 1 67 1 125 1 308 1 287 1
35 0 5 382 1 140 1 113 1 391 1 41 1
36 0 5 412 1 268 1 293 1 78 1 5 1
37 0 5 30 1 178 1 59 1 353 1 354 1
38 0 5 201 1 206 1 118 1 306 1 307 1
39 0 5 276 1 237 1 181 1 321 1 265 1
40 0 5 402 1 126 1 403 1 284 1 350 1
41 0 5 113 1 9 1 363 1 311 1 140 1
42 0 5 292 1 334 1 114 1 333 1 128 1
43 0 5 5 1 254 1 75 1 308 1 365 1
44 0 5 280 1 273 1 87 1 300 1 302 1
45 0 5 207 1 173 1 22 1 325 1 329 1
46 0 5 295 1 269 1 296 1 312 1 141 1
47 0 5 31 1 410 1 120 1 315 1 347 1
48 0 5 229 1 182 1 33 1 217 1 18 1
49 0 5 374 1 28 1 326 1 298 1 360 1
50 0 5 310 1 3 1 348 1 99 1 384 1
51 0 5 263 1 399 1 294 1 370 1 286 1
52 0 5 332 1 289 1 244 1 4 1 13 1
53 0 5 192 1 167 1 121 1 340 1 148 1
54 0 5 297 1 67 1 171 1 400 1 196 1
55 0 5 328 1 345 1 323 1 195 1 151 1
56 0 5 131 1 373 1 8 1 399 1 294 1
57 0 5 74 1 375 1 22 1 309 1 141 1
58 0 5 91 1 233 1 383 1 88 1 297 1
59 0 5 313 1 353 1 37 1 178 1 262 1
60 0 5 136 1 28 1 224 1 326 1 230 1
61 0 5 170 1 384 1 424 1 226 1 3 1
62 0 5 139 1 115 1 137 1 162 1 198 1
63 0 5 103 1 4 1 132 1 13 1 289 1
64 0 5 165 1 197 1 172 1 361 1 15 1
65 0 5 393 1 27 1 227 1 99 1 250 1
66 0 5 158 1 277 1 133 1 26 1 71 1
67 0 5 196 1 364 1 54 1 34 1 400 1
68 0 5 344 1 424 1 350 1 384 1 40 1
69 0 5 392 1 112 1 180 1 110 1 421 1
70 0 5 127 1 271 1 266 1 397 1 368 1
71 0 5 239 1 287 1 66 1 422 1 222 1
72 0 5 186 1 130 1 286 1 301 1 376 1
73 0 5 268 1 224 1 184 1 212 1 230 1
74 0 5 9 1 84 1 141 1 57 1 311 1
75 0 5 308 1 287 1 303 1 43 1 133 1
76 0 5 406 1 390 1 160 1 232 1 13 1
77 0 5 267 1 397 1 228 1 70 1 278 1
78 0 5 24 1 122 1 268 1 73 1 212 1
79 0 5 250 1 146 1 124 1 164 1 11 1
80 0 5 307 1 338 1 164 1 145 1 320 1
81 0 5 198 1 192 1 340 1 418 1 281 1
82 0 5 21 1 398 1 235 1 285 1 277 1
83 0 5 252 1 168 1 167 1 335 1 143 1
84 0 5 391 1 379 1 352 1 395 1 9 1
85 0 5 213 1 361 1 163 1 322 1 319 1
86 0 5 403 1 388 1 185 1 314 1 155 1
87 0 5 302 1 425 1 300 1 44 1 347 1
88 0 5 233 1 398 1 362 1 96 1 58 1
89 0 5 254 1 43 1 453 1 452 1 451 1
90 0 5 266 1 17 1 166 1 249 1 223 1
91 0 5 58 1 6 1 242 1 297 1 383 1
92 0 5 394 1 149 1 180 1 299 1 116 1
93 0 5 377 1 22 1 329 1 342 1 173 1
94 0 5 359 1 169 1 227 1 385 1 99 1
95 0 5 111 1 200 1 427 1 383 1 88 1
96 0 5 362 1 398 1 8 1 88 1 373 1
97 0 5 387 1 262 1 408 1 24 1 212 1
98 0 5 149 1 124 1 189 1 367 1 394 1
99 0 5 27 1 50 1 348 1 255 1 385 1
100 0 5 163 1 135 1 296 1 46 1 141 1
101 0 5 206 1 29 1 104 1 306 1 208 1
102 0 5 25 1 225 1 422 1 26 1 160 1
103 0 5 63 1 130 1 286 1 132 1 4 1
104 0 5 29 1 247 1 208 1 101 1 206 1
105 0 5 316 1 178 1 155 1 350 1 388 1
106 0 5 352 1 261 1 395 1 157 1 84 1
107 0 5 19 1 261 1 165 1 409 1 172 1
108 0 5 386 1 236 1 274 1 181 1 265 1
109 0 5 18 1 304 1 175 1 324 1 182 1
110 0 5 421 1 20 1 257 1 69 1 112 1
111 0 5 95 1 258 1 362 1 330 1 200 1
112 0 5 305 1 69 1 110 1 180 1 421 1
113 0 5 41 1 140 1 391 1 35 1 395 1
114 0 5 333 1 117 1 42 1 166 1 241 1
115 0 5 198 1 62 1 321 1 137 1 156 1
116 0 5 371 1 180 1 144 1 279 1 92 1
117 0 5 241 1 17 1 223 1 114 1 288 1
118 0 5 284 1 201 1 38 1 306 1 338 1
119 0 5 331 1 328 1 323 1 16 1 329 1
120 0 5 280 1 47 1 315 1 31 1 87 1
121 0 5 381 1 168 1 167 1 53 1 369 1
122 0 5 147 1 29 1 78 1 208 1 24 1
123 0 5 341 1 32 1 363 1 325 1 140 1
124 0 5 149 1 98 1 79 1 393 1 299 1
125 0 5 285 1 364 1 196 1 235 1 67 1
126 0 5 338 1 40 1 11 1 402 1 146 1
127 0 5 70 1 266 1 429 1 271 1 249 1
128 0 5 177 1 134 1 292 1 278 1 333 1
129 0 5 372 1 429 1 411 1 266 1 220 1
130 0 5 72 1 103 1 301 1 132 1 376 1
131 0 5 286 1 56 1 399 1 186 1 8 1
132 0 5 301 1 219 1 210 1 103 1 160 1
133 0 5 277 1 21 1 287 1 66 1 285 1
134 0 5 336 1 128 1 187 1 177 1 334 1
135 0 5 296 1 319 1 163 1 100 1 46 1
136 0 5 60 1 230 1 290 1 218 1 231 1
137 0 5 156 1 162 1 62 1 139 1 115 1
138 0 5 413 1 5 1 193 1 412 1 10 1
139 0 5 62 1 162 1 137 1 191 1 115 1
140 0 5 35 1 341 1 113 1 41 1 363 1
141 0 5 295 1 46 1 74 1 379 1 269 1
142 0 5 310 1 255 1 385 1 99 1 94 1
143 0 5 248 1 335 1 252 1 83 1 220 1
144 0 5 343 1 279 1 349 1 371 1 116 1
145 0 5 247 1 307 1 189 1 80 1 351 1
146 0 5 164 1 11 1 79 1 126 1 250 1
147 0 5 122 1 378 1 389 1 306 1 29 1
148 0 5 188 1 257 1 209 1 110 1 346 1
149 0 5 124 1 92 1 98 1 394 1 299 1
150 0 5 154 1 265 1 428 1 10 1 108 1
151 0 5 195 1 339 1 215 1 55 1 345 1
152 0 5 155 1 314 1 389 1 378 1 387 1
153 0 5 425 1 204 1 87 1 209 1 251 1
154 0 5 150 1 428 1 183 1 265 1 420 1
155 0 5 152 1 262 1 387 1 86 1 316 1
156 0 5 137 1 396 1 423 1 256 1 115 1
157 0 5 414 1 395 1 106 1 113 1 382 1
158 0 5 26 1 66 1 337 1 210 1 102 1
159 0 5 327 1 15 1 253 1 200 1 383 1
160 0 5 232 1 76 1 225 1 25 1 13 1
161 0 5 319 1 409 1 172 1 361 1 296 1
162 0 5 137 1 139 1 288 1 62 1 156 1
163 0 5 213 1 85 1 319 1 361 1 400 1
164 0 5 146 1 320 1 80 1 79 1 124 1
165 0 5 64 1 172 1 107 1 261 1 19 1
166 0 5 249 1 333 1 114 1 90 1 271 1
167 0 5 53 1 204 1 83 1 340 1 121 1
168 0 5 83 1 335 1 121 1 381 1 167 1
169 0 5 205 1 94 1 272 1 359 1 371 1
170 0 5 61 1 3 1 226 1 424 1 348 1
171 0 5 54 1 400 1 67 1 211 1 163 1
172 0 5 165 1 64 1 361 1 161 1 409 1
173 0 5 329 1 45 1 325 1 207 1 93 1
174 0 5 321 1 39 1 443 1 444 1 445 1
175 0 5 33 1 357 1 182 1 18 1 407 1
176 0 5 449 1 441 1 442 1 444 1 488 1
177 0 5 187 1 128 1 134 1 334 1 278 1
178 0 5 105 1 37 1 59 1 30 1 316 1
179 0 5 259 1 323 1 199 1 291 1 32 1
180 0 5 116 1 279 1 69 1 392 1 92 1
181 0 5 236 1 276 1 108 1 39 1 265 1
182 0 5 48 1 18 1 33 1 229 1 221 1
183 0 5 351 1 154 1 208 1 247 1 190 1
184 0 5 212 1 73 1 230 1 224 1 408 1
185 0 5 350 1 388 1 86 1 403 1 155 1
186 0 5 72 1 286 1 131 1 56 1 8 1
187 0 5 177 1 278 1 134 1 267 1 334 1
188 0 5 148 1 346 1 115 1 321 1 198 1
189 0 5 367 1 145 1 351 1 98 1 190 1
190 0 5 305 1 367 1 183 1 189 1 154 1
191 0 5 405 1 270 1 355 1 426 1 139 1
192 0 5 53 1 340 1 81 1 418 1 121 1
193 0 5 386 1 274 1 10 1 236 1 138 1
194 0 5 419 1 377 1 440 1 455 1 441 1
195 0 5 151 1 366 1 416 1 55 1 203 1
196 0 5 67 1 211 1 364 1 400 1 125 1
197 0 5 64 1 15 1 327 1 404 1 361 1
198 0 5 81 1 115 1 418 1 62 1 396 1
199 0 5 16 1 32 1 179 1 323 1 331 1
200 0 5 427 1 95 1 159 1 111 1 15 1
201 0 5 38 1 118 1 307 1 80 1 206 1
202 0 5 14 1 377 1 215 1 151 1 416 1
203 0 5 366 1 416 1 317 1 195 1 357 1
204 0 5 153 1 209 1 167 1 87 1 425 1
205 0 5 169 1 371 1 343 1 272 1 359 1
206 0 5 101 1 38 1 247 1 104 1 306 1
207 0 5 45 1 325 1 329 1 173 1 339 1
208 0 5 238 1 104 1 183 1 247 1 154 1
209 0 5 204 1 148 1 251 1 425 1 415 1
210 0 5 337 1 219 1 26 1 132 1 25 1
211 0 5 235 1 196 1 297 1 364 1 54 1
212 0 5 184 1 408 1 73 1 24 1 97 1
213 0 5 85 1 400 1 163 1 361 1 322 1
214 0 5 244 1 370 1 260 1 294 1 330 1
215 0 5 234 1 151 1 342 1 339 1 14 1
216 0 5 347 1 425 1 410 1 87 1 209 1
217 0 5 270 1 358 1 229 1 405 1 221 1
218 0 5 231 1 7 1 230 1 136 1 290 1
219 0 5 301 1 210 1 132 1 26 1 376 1
220 0 5 411 1 429 1 283 1 248 1 143 1
221 0 5 240 1 229 1 358 1 182 1 33 1
222 0 5 422 1 239 1 225 1 360 1 71 1
223 0 5 17 1 117 1 266 1 423 1 90 1
224 0 5 230 1 73 1 293 1 268 1 184 1
225 0 5 102 1 422 1 160 1 222 1 337 1
226 0 5 11 1 424 1 348 1 170 1 61 1
227 0 5 299 1 393 1 94 1 272 1 99 1
228 0 5 397 1 271 1 267 1 278 1 77 1
229 0 5 48 1 221 1 182 1 217 1 358 1
230 0 5 136 1 224 1 218 1 184 1 408 1
231 0 5 218 1 353 1 290 1 7 1 136 1
232 0 5 356 1 160 1 354 1 76 1 12 1
233 0 5 383 1 58 1 88 1 362 1 398 1
234 0 5 339 1 215 1 345 1 151 1 342 1
235 0 5 211 1 82 1 21 1 364 1 285 1
236 0 5 181 1 108 1 386 1 276 1 193 1
237 0 5 276 1 39 1 193 1 413 1 108 1
238 0 5 208 1 10 1 154 1 274 1 428 1
239 0 5 222 1 71 1 360 1 422 1 225 1
240 0 5 221 1 380 1 358 1 334 1 336 1
241 0 5 117 1 288 1 114 1 223 1 17 1
242 0 5 6 1 297 1 91 1 400 1 383 1
243 0 5 449 1 441 1 442 1 444 1 488 1
244 0 5 214 1 260 1 52 1 289 1 4 1
245 0 5 246 1 291 1 140 1 341 1 259 1
246 0 5 245 1 259 1 341 1 291 1 32 1
247 0 5 104 1 351 1 145 1 183 1 208 1
248 0 5 283 1 143 1 252 1 220 1 335 1
249 0 5 368 1 166 1 70 1 90 1 266 1
250 0 5 79 1 11 1 393 1 27 1 146 1
251 0 5 410 1 415 1 421 1 209 1 257 1
252 0 5 83 1 143 1 248 1 300 1 264 1
253 0 5 6 1 404 1 159 1 327 1 383 1
254 0 5 43 1 413 1 365 1 308 1 89 1
255 0 5 385 1 142 1 99 1 94 1 227 1
256 0 5 423 1 396 1 418 1 156 1 318 1
257 0 5 415 1 148 1 421 1 110 1 251 1
258 0 5 330 1 111 1 294 1 362 1 373 1
259 0 5 291 1 179 1 246 1 245 1 323 1
260 0 5 263 1 244 1 214 1 370 1 289 1
261 0 5 106 1 107 1 19 1 165 1 352 1
262 0 5 408 1 313 1 97 1 387 1 155 1
263 0 5 51 1 260 1 370 1 399 1 294 1
264 0 5 23 1 283 1 252 1 300 1 220 1
265 0 5 150 1 154 1 428 1 346 1 108 1
266 0 5 90 1 127 1 70 1 429 1 223 1
267 0 5 77 1 278 1 228 1 187 1 70 1
268 0 5 73 1 36 1 293 1 224 1 184 1
269 0 5 312 1 379 1 295 1 46 1 409 1
270 0 5 217 1 191 1 407 1 405 1 357 1
271 0 5 368 1 228 1 70 1 166 1 278 1
272 0 5 359 1 169 1 227 1 371 1 394 1
273 0 5 44 1 300 1 23 1 87 1 264 1
274 0 5 108 1 428 1 10 1 193 1 386 1
275 0 5 279 1 392 1 421 1 251 1 180 1
276 0 5 181 1 39 1 237 1 236 1 108 1
277 0 5 21 1 133 1 66 1 285 1 398 1
278 0 5 267 1 187 1 228 1 128 1 271 1
279 0 5 275 1 144 1 180 1 315 1 116 1
280 0 5 120 1 44 1 31 1 87 1 47 1
281 0 5 369 1 418 1 81 1 318 1 121 1
282 0 5 317 1 357 1 416 1 203 1 377 1
283 0 5 248 1 264 1 220 1 23 1 252 1
284 0 5 118 1 403 1 338 1 40 1 86 1
285 0 5 125 1 133 1 277 1 235 1 21 1
286 0 5 131 1 399 1 186 1 103 1 72 1
287 0 5 75 1 71 1 303 1 133 1 308 1
288 0 5 241 1 423 1 117 1 162 1 405 1
289 0 5 4 1 52 1 244 1 260 1 332 1
290 0 5 12 1 231 1 353 1 136 1 356 1
291 0 5 245 1 259 1 323 1 246 1 179 1
292 0 5 42 1 333 1 128 1 166 1 114 1
293 0 5 417 1 36 1 268 1 224 1 412 1
294 0 5 330 1 370 1 399 1 373 1 56 1
295 0 5 46 1 269 1 379 1 141 1 312 1
296 0 5 135 1 319 1 46 1 312 1 269 1
297 0 5 242 1 400 1 91 1 211 1 58 1
298 0 5 417 1 28 1 49 1 303 1 60 1
299 0 5 227 1 394 1 124 1 149 1 393 1
300 0 5 273 1 23 1 87 1 252 1 44 1
301 0 5 219 1 132 1 130 1 72 1 376 1
302 0 5 31 1 347 1 87 1 47 1 120 1
303 0 5 75 1 417 1 287 1 298 1 293 1
304 0 5 109 1 324 1 18 1 366 1 357 1
305 0 5 112 1 190 1 180 1 110 1 367 1
306 0 5 314 1 389 1 38 1 147 1 118 1
307 0 5 80 1 201 1 145 1 38 1 206 1
308 0 5 75 1 365 1 43 1 287 1 125 1
309 0 5 311 1 22 1 375 1 9 1 363 1
310 0 5 50 1 142 1 384 1 3 1 348 1
311 0 5 309 1 363 1 9 1 41 1 375 1
312 0 5 409 1 269 1 46 1 296 1 295 1
313 0 5 7 1 59 1 262 1 353 1 230 1
314 0 5 152 1 306 1 389 1 86 1 155 1
315 0 5 349 1 120 1 279 1 47 1 410 1
316 0 5 105 1 350 1 388 1 155 1 178 1
317 0 5 282 1 357 1 203 1 416 1 366 1
318 0 5 372 1 418 1 369 1 335 1 423 1
319 0 5 161 1 296 1 163 1 135 1 172 1
320 0 5 2 1 164 1 80 1 145 1 146 1
321 0 5 346 1 174 1 115 1 448 1 188 1
322 0 5 404 1 361 1 85 1 163 1 213 1
323 0 5 179 1 119 1 55 1 291 1 331 1
324 0 5 304 1 366 1 357 1 203 1 317 1
325 0 5 363 1 331 1 207 1 173 1 16 1
326 0 5 12 1 49 1 28 1 360 1 60 1
327 0 5 159 1 15 1 197 1 253 1 404 1
328 0 5 55 1 119 1 345 1 207 1 331 1
329 0 5 173 1 342 1 207 1 325 1 93 1
330 0 5 294 1 258 1 111 1 370 1 362 1
331 0 5 119 1 16 1 325 1 323 1 328 1
332 0 5 52 1 13 1 4 1 289 1 63 1
333 0 5 292 1 166 1 114 1 128 1 42 1
334 0 5 42 1 380 1 336 1 358 1 128 1
335 0 5 143 1 168 1 83 1 318 1 381 1
336 0 5 134 1 380 1 334 1 240 1 221 1
337 0 5 25 1 210 1 26 1 158 1 102 1
338 0 5 126 1 284 1 80 1 40 1 118 1
339 0 5 234 1 345 1 151 1 207 1 215 1
340 0 5 192 1 81 1 167 1 53 1 168 1
341 0 5 123 1 140 1 246 1 41 1 113 1
342 0 5 215 1 329 1 377 1 93 1 234 1
343 0 5 144 1 349 1 205 1 371 1 120 1
344 0 5 68 1 384 1 424 1 61 1 402 1
345 0 5 339 1 55 1 328 1 234 1 151 1
346 0 5 321 1 401 1 20 1 265 1 188 1
347 0 5 216 1 302 1 425 1 87 1 47 1
348 0 5 3 1 50 1 226 1 99 1 170 1
349 0 5 315 1 343 1 144 1 279 1 120 1
350 0 5 185 1 388 1 316 1 68 1 40 1
351 0 5 367 1 183 1 247 1 189 1 145 1
352 0 5 106 1 84 1 379 1 409 1 261 1
353 0 5 231 1 59 1 290 1 37 1 313 1
354 0 5 30 1 232 1 356 1 37 1 353 1
355 0 5 191 1 405 1 426 1 139 1 442 1
356 0 5 232 1 354 1 12 1 290 1 353 1
357 0 5 317 1 175 1 282 1 324 1 270 1
358 0 5 217 1 240 1 221 1 334 1 405 1
359 0 5 272 1 94 1 169 1 227 1 205 1
360 0 5 374 1 239 1 222 1 326 1 49 1
361 0 5 322 1 85 1 172 1 197 1 163 1
362 0 5 373 1 96 1 88 1 111 1 258 1
363 0 5 311 1 123 1 325 1 32 1 41 1
364 0 5 196 1 67 1 125 1 211 1 235 1
365 0 5 308 1 34 1 254 1 287 1 303 1
366 0 5 324 1 203 1 195 1 416 1 317 1
367 0 5 189 1 351 1 190 1 183 1 305 1
368 0 5 271 1 249 1 70 1 166 1 90 1
369 0 5 381 1 281 1 121 1 318 1 335 1
370 0 5 214 1 294 1 263 1 260 1 330 1
371 0 5 116 1 205 1 343 1 144 1 272 1
372 0 5 129 1 318 1 223 1 266 1 17 1
373 0 5 362 1 56 1 294 1 258 1 399 1
374 0 5 360 1 49 1 326 1 71 1 28 1
375 0 5 309 1 9 1 22 1 57 1 311 1
376 0 5 8 1 398 1 219 1 66 1 130 1
377 0 5 342 1 14 1 93 1 202 1 416 1
378 0 5 389 1 24 1 387 1 147 1 155 1
379 0 5 269 1 84 1 295 1 352 1 46 1
380 0 5 336 1 240 1 334 1 358 1 221 1
381 0 5 369 1 121 1 168 1 335 1 281 1
382 0 5 414 1 35 1 157 1 245 1 106 1
383 0 5 233 1 427 1 58 1 91 1 253 1
384 0 5 344 1 61 1 68 1 3 1 310 1
385 0 5 255 1 142 1 99 1 94 1 227 1
386 0 5 193 1 108 1 236 1 274 1 181 1
387 0 5 97 1 378 1 262 1 155 1 408 1
388 0 5 185 1 350 1 86 1 316 1 403 1
389 0 5 378 1 306 1 152 1 314 1 147 1
390 0 5 13 1 406 1 76 1 160 1 232 1
391 0 5 84 1 395 1 113 1 9 1 35 1
392 0 5 275 1 69 1 180 1 110 1 421 1
393 0 5 65 1 227 1 250 1 124 1 394 1
394 0 5 299 1 92 1 149 1 272 1 227 1
395 0 5 157 1 391 1 106 1 84 1 113 1
396 0 5 256 1 156 1 423 1 418 1 198 1
397 0 5 77 1 228 1 70 1 267 1 271 1
398 0 5 96 1 82 1 88 1 235 1 376 1
399 0 5 51 1 286 1 294 1 131 1 56 1
400 0 5 213 1 297 1 196 1 54 1 242 1
401 0 5 20 1 346 1 110 1 420 1 257 1
402 0 5 424 1 40 1 11 1 126 1 226 1
403 0 5 86 1 284 1 40 1 350 1 185 1
404 0 5 322 1 253 1 197 1 327 1 6 1
405 0 5 191 1 217 1 358 1 288 1 270 1
406 0 5 76 1 390 1 232 1 30 1 160 1
407 0 5 426 1 191 1 445 1 446 1 447 1
408 0 5 262 1 97 1 212 1 230 1 184 1
409 0 5 312 1 161 1 352 1 269 1 172 1
410 0 5 251 1 47 1 216 1 315 1 425 1
411 0 5 220 1 429 1 129 1 372 1 266 1
412 0 5 36 1 5 1 293 1 10 1 238 1
413 0 5 138 1 254 1 237 1 5 1 43 1
414 0 5 382 1 157 1 106 1 395 1 35 1
415 0 5 421 1 251 1 257 1 209 1 110 1
416 0 5 203 1 195 1 317 1 377 1 202 1
417 0 5 298 1 293 1 303 1 224 1 28 1
418 0 5 281 1 318 1 256 1 81 1 423 1
419 0 5 451 1 441 1 440 1 443 1 450 1
420 0 5 20 1 154 1 110 1 401 1 346 1
421 0 5 415 1 110 1 257 1 251 1 275 1
422 0 5 222 1 225 1 239 1 102 1 71 1
423 0 5 256 1 288 1 396 1 223 1 418 1
424 0 5 402 1 68 1 226 1 61 1 170 1
425 0 5 153 1 216 1 87 1 347 1 209 1
426 0 5 419 1 446 1 442 1 448 1 452 1
427 0 5 200 1 383 1 95 1 242 1 253 1
428 0 5 10 1 154 1 274 1 265 1 150 1
429 0 5 220 1 411 1 127 1 129 1 266 1
430 0 5 456 1 439 1 440 1 441 1 442 1
431 0 5 456 1 439 1 440 1 441 1 442 1
432 0 5 456 1 439 1 440 1 441 1 442 1
433 0 5 456 1 439 1 440 1 441 1 442 1
434 0 5 456 1 439 1 440 1 441 1 442 1
435 0 5 456 1 439 1 440 1 441 1 442 1
436 0 5 456 1 439 1 440 1 441 1 442 1
437 0 5 456 1 439 1 440 1 441 1 442 1
438 0 5 456 1 439 1 440 1 441 1 442 1
439 0 5 456 1 439 1 440 1 441 1 442 1
440 0 5 456 1 439 1 440 1 441 1 442 1
441 0 5 456 1 439 1 440 1 441 1 442 1
442 0 5 456 1 439 1 440 1 441 1 442 1
443 0 5 456 1 439 1 440 1 441 1 442 1
444 0 5 456 1 439 1 440 1 441 1 442 1
445 0 5 456 1 439 1 440 1 441 1 442 1
446 0 5 456 1 439 1 440 1 441 1 442 1
447 0 5 456 1 439 1 440 1 441 1 442 1
448 0 5 456 1 439 1 440 1 441 1 442 1
449 0 5 456 1 439 1 440 1 441 1 442 1
450 0 5 456 1 439 1 440 1 441 1 442 1
451 0 5 456 1 439 1 440 1 441 1 442 1
452 0 5 456 1 439 1 440 1 441 1 442 1
453 0 5 456 1 439 1 440 1 441 1 442 1
454 0 5 456 1 439 1 440 1 441 1 442 1
455 0 5 456 1 439 1 440 1 441 1 442 1
456 0 5 456 1 439 1 440 1 441 1 442 1
457 0 5 456 1 439 1 440 1 441 1 442 1
458 0 5 456 1 439 1 440 1 441 1 442 1
459 0 5 456 1 439 1 440 1 441 1 442 1
460 0 5 456 1 439 1 440 1 441 1 442 1
461 0 5 456 1 439 1 440 1 441 1 442 1
462 0 5 456 1 439 1 440 1 441 1 442 1
463 0 5 456 1 439 1 440 1 441 1 442 1
464 0 5 456 1 439 1 440 1 441 1 442 1
465 0 5 456 1 439 1 440 1 441 1 442 1
466 0 5 456 1 439 1 440 1 441 1 442 1
467 0 5 456 1 439 1 440 1 441 1 442 1
468 0 5 456 1 439 1 440 1 441 1 442 1
469 0 5 456 1 439 1 440 1 441 1 442 1
470 0 5 456 1 439 1 440 1 441 1 442 1
471 0 5 456 1 439 1 440 1 441 1 442 1
472 0 5 456 1 439 1 440 1 441 1 442 1
473 0 5 456 1 439 1 440 1 441 1 442 1
474 0 5 456 1 439 1 440 1 441 1 442 1
475 0 5 456 1 439 1 440 1 441 1 442 1
476 0 5 456 1 439 1 440 1 441 1 442 1
477 0 5 456 1 439 1 440 1 441 1 442 1
478 0 5 456 1 439 1 440 1 441 1 442 1
479 0 5 456 1 439 1 440 1 441 1 442 1
480 0 5 456 1 439 1 440 1 441 1 442 1
481 0 5 456 1 439 1 440 1 441 1 442 1
482 0 5 456 1 439 1 440 1 441 1 442 1
483 0 5 456 1 439 1 440 1 441 1 442 1
484 0 5 456 1 439 1 440 1 441 1 442 1
485 0 5 456 1 439 1 440 1 441 1 442 1
486 0 5 456 1 439 1 440 1 441 1 442 1
487 0 5 456 1 439 1 440 1 441 1 442 1
488 0 5 456 1 439 1 440 1 441 1 442 1
489 0 5 456 1 439 1 440 1 441 1 442 1
-1
EOF
